p cnf 492 1924
12 16 -3 0
-8 -23 -47 0
17 43 44 0
-31 -26 30 0
-20 -8 -11 0
-8 -21 10 0
-20 49 -39 0
-28 50 -42 0
-20 -2 -8 0
-36 -34 15 0
25 -45 8 0
17 44 -28 0
29 -8 10 0
45 -31 17 0
50 30 44 0
23 14 31 0
38 -34 47 0
23 30 -11 0
-13 -50 30 0
16 -17 21 0
-26 28 19 0
29 -3 21 0
8 -40 -34 0
17 35 -2 0
-1 -24 -44 0
16 -38 -33 0
17 -22 -37 0
-50 -39 -17 0
29 14 -24 0
-29 -23 -7 0
29 -3 -50 0
-13 -2 8 0
30 44 5 0
10 15 25 0
-8 26 5 0
26 32 -12 0
42 21 -5 0
-27 -48 -9 0
42 -23 11 0
-5 -31 -6 0
-28 -20 -12 0
16 39 -42 0
-2 10 -4 0
10 24 31 0
15 13 22 0
37 -6 -40 0
10 33 -45 0
11 6 16 0
26 -31 -21 0
-10 -27 3 0
8 3 -10 0
-11 7 -34 0
19 -32 -33 0
43 -32 -8 0
-13 -12 -49 0
-33 -6 -3 0
39 -25 -47 0
-10 -3 -29 0
-41 46 47 0
-37 -50 -46 0
-28 33 15 0
-36 -6 12 0
-11 -37 27 0
33 -20 28 0
48 -22 3 0
18 -14 38 0
-33 46 50 0
-10 33 -27 0
-29 -41 26 0
50 4 -24 0
-34 -14 -41 0
-25 -20 -4 0
32 -48 24 0
27 15 -2 0
28 -35 4 0
-16 45 2 0
-8 6 9 0
30 -8 18 0
-8 -25 -36 0
36 25 6 0
9 -7 17 0
24 -38 32 0
15 -36 43 0
6 -24 33 0
16 49 -14 0
-28 -20 -18 0
21 38 49 0
-46 -29 39 0
-25 27 10 0
36 41 -17 0
-3 5 4 0
16 -27 22 0
-43 -24 -45 0
13 -41 37 0
47 41 1 0
34 49 20 0
3 33 45 0
47 -19 42 0
-29 -14 -7 0
27 31 -24 0
-1 -4 51 0
1 -4 -51 0
-1 4 -51 0
1 4 51 0
5 -8 52 0
-5 -8 -52 0
5 8 -52 0
-5 8 52 0
-10 12 53 0
10 12 -53 0
-10 -12 -53 0
10 -12 53 0
15 -16 54 0
-15 -16 -54 0
15 16 -54 0
-15 16 54 0
18 19 55 0
-18 19 -55 0
18 -19 -55 0
-18 -19 55 0
21 23 56 0
-21 23 -56 0
21 -23 -56 0
-21 -23 56 0
-25 -28 57 0
25 -28 -57 0
-25 28 -57 0
25 28 57 0
29 30 58 0
-29 30 -58 0
29 -30 -58 0
-29 -30 58 0
35 36 59 0
-35 36 -59 0
35 -36 -59 0
-35 -36 59 0
40 44 60 0
-40 44 -60 0
40 -44 -60 0
-40 -44 60 0
-45 -46 61 0
45 -46 -61 0
-45 46 -61 0
45 46 61 0
51 -52 62 0
-51 -52 -62 0
51 52 -62 0
-51 52 62 0
53 -54 63 0
-53 -54 -63 0
53 54 -63 0
-53 54 63 0
55 -56 64 0
-55 -56 -64 0
55 56 -64 0
-55 56 64 0
57 -58 65 0
-57 -58 -65 0
57 58 -65 0
-57 58 65 0
59 -60 66 0
-59 -60 -66 0
59 60 -66 0
-59 60 66 0
61 -62 67 0
-61 -62 -67 0
61 62 -67 0
-61 62 67 0
63 -64 68 0
-63 -64 -68 0
63 64 -68 0
-63 64 68 0
65 -66 69 0
-65 -66 -69 0
65 66 -69 0
-65 66 69 0
-67 -68 69 0
67 -68 -69 0
-67 68 -69 0
67 68 69 0
-3 4 70 0
3 4 -70 0
-3 -4 -70 0
3 -4 70 0
5 6 71 0
-5 6 -71 0
5 -6 -71 0
-5 -6 71 0
-9 -10 72 0
9 -10 -72 0
-9 10 -72 0
9 10 72 0
-12 13 73 0
12 13 -73 0
-12 -13 -73 0
12 -13 73 0
-15 16 74 0
15 16 -74 0
-15 -16 -74 0
15 -16 74 0
18 -20 75 0
-18 -20 -75 0
18 20 -75 0
-18 20 75 0
21 26 76 0
-21 26 -76 0
21 -26 -76 0
-21 -26 76 0
27 -29 77 0
-27 -29 -77 0
27 29 -77 0
-27 29 77 0
31 -36 78 0
-31 -36 -78 0
31 36 -78 0
-31 36 78 0
-37 38 79 0
37 38 -79 0
-37 -38 -79 0
37 -38 79 0
40 43 80 0
-40 43 -80 0
40 -43 -80 0
-40 -43 80 0
44 45 81 0
-44 45 -81 0
44 -45 -81 0
-44 -45 81 0
69 -70 82 0
-69 -70 -82 0
69 70 -82 0
-69 70 82 0
71 -72 83 0
-71 -72 -83 0
71 72 -83 0
-71 72 83 0
73 -74 84 0
-73 -74 -84 0
73 74 -84 0
-73 74 84 0
75 -76 85 0
-75 -76 -85 0
75 76 -85 0
-75 76 85 0
77 -78 86 0
-77 -78 -86 0
77 78 -86 0
-77 78 86 0
79 -80 87 0
-79 -80 -87 0
79 80 -87 0
-79 80 87 0
81 -82 88 0
-81 -82 -88 0
81 82 -88 0
-81 82 88 0
83 -84 89 0
-83 -84 -89 0
83 84 -89 0
-83 84 89 0
85 -86 90 0
-85 -86 -90 0
85 86 -90 0
-85 86 90 0
87 -88 91 0
-87 -88 -91 0
87 88 -91 0
-87 88 91 0
89 -90 92 0
-89 -90 -92 0
89 90 -92 0
-89 90 92 0
91 92 0
-91 -92 0
-3 -5 93 0
3 -5 -93 0
-3 5 -93 0
3 5 93 0
7 -9 94 0
-7 -9 -94 0
7 9 -94 0
-7 9 94 0
-10 -13 95 0
10 -13 -95 0
-10 13 -95 0
10 13 95 0
14 -22 96 0
-14 -22 -96 0
14 22 -96 0
-14 22 96 0
23 25 97 0
-23 25 -97 0
23 -25 -97 0
-23 -25 97 0
-27 28 98 0
27 28 -98 0
-27 -28 -98 0
27 -28 98 0
30 32 99 0
-30 32 -99 0
30 -32 -99 0
-30 -32 99 0
-35 37 100 0
35 37 -100 0
-35 -37 -100 0
35 -37 100 0
-40 41 101 0
40 41 -101 0
-40 -41 -101 0
40 -41 101 0
-46 47 102 0
46 47 -102 0
-46 -47 -102 0
46 -47 102 0
49 50 103 0
-49 50 -103 0
49 -50 -103 0
-49 -50 103 0
93 -94 104 0
-93 -94 -104 0
93 94 -104 0
-93 94 104 0
95 -96 105 0
-95 -96 -105 0
95 96 -105 0
-95 96 105 0
97 -98 106 0
-97 -98 -106 0
97 98 -106 0
-97 98 106 0
99 -100 107 0
-99 -100 -107 0
99 100 -107 0
-99 100 107 0
101 -102 108 0
-101 -102 -108 0
101 102 -108 0
-101 102 108 0
103 -104 109 0
-103 -104 -109 0
103 104 -109 0
-103 104 109 0
105 -106 110 0
-105 -106 -110 0
105 106 -110 0
-105 106 110 0
107 -108 111 0
-107 -108 -111 0
107 108 -111 0
-107 108 111 0
-109 -110 111 0
109 -110 -111 0
-109 110 -111 0
109 110 111 0
-3 5 112 0
3 5 -112 0
-3 -5 -112 0
3 -5 112 0
6 7 113 0
-6 7 -113 0
6 -7 -113 0
-6 -7 113 0
-8 11 114 0
8 11 -114 0
-8 -11 -114 0
8 -11 114 0
12 -13 115 0
-12 -13 -115 0
12 13 -115 0
-12 13 115 0
14 15 116 0
-14 15 -116 0
14 -15 -116 0
-14 -15 116 0
-17 -18 117 0
17 -18 -117 0
-17 18 -117 0
17 18 117 0
20 -22 118 0
-20 -22 -118 0
20 22 -118 0
-20 22 118 0
-26 28 119 0
26 28 -119 0
-26 -28 -119 0
26 -28 119 0
-30 -31 120 0
30 -31 -120 0
-30 31 -120 0
30 31 120 0
-35 -38 121 0
35 -38 -121 0
-35 38 -121 0
35 38 121 0
-40 -42 122 0
40 -42 -122 0
-40 42 -122 0
40 42 122 0
43 45 123 0
-43 45 -123 0
43 -45 -123 0
-43 -45 123 0
-46 -50 124 0
46 -50 -124 0
-46 50 -124 0
46 50 124 0
112 -113 125 0
-112 -113 -125 0
112 113 -125 0
-112 113 125 0
114 -115 126 0
-114 -115 -126 0
114 115 -126 0
-114 115 126 0
116 -117 127 0
-116 -117 -127 0
116 117 -127 0
-116 117 127 0
118 -119 128 0
-118 -119 -128 0
118 119 -128 0
-118 119 128 0
120 -121 129 0
-120 -121 -129 0
120 121 -129 0
-120 121 129 0
122 -123 130 0
-122 -123 -130 0
122 123 -130 0
-122 123 130 0
124 -125 131 0
-124 -125 -131 0
124 125 -131 0
-124 125 131 0
126 -127 132 0
-126 -127 -132 0
126 127 -132 0
-126 127 132 0
128 -129 133 0
-128 -129 -133 0
128 129 -133 0
-128 129 133 0
130 -131 134 0
-130 -131 -134 0
130 131 -134 0
-130 131 134 0
132 -133 135 0
-132 -133 -135 0
132 133 -135 0
-132 133 135 0
134 135 0
-134 -135 0
-1 2 136 0
1 2 -136 0
-1 -2 -136 0
1 -2 136 0
4 6 137 0
-4 6 -137 0
4 -6 -137 0
-4 -6 137 0
-12 13 138 0
12 13 -138 0
-12 -13 -138 0
12 -13 138 0
16 18 139 0
-16 18 -139 0
16 -18 -139 0
-16 -18 139 0
-19 -24 140 0
19 -24 -140 0
-19 24 -140 0
19 24 140 0
25 29 141 0
-25 29 -141 0
25 -29 -141 0
-25 -29 141 0
-33 34 142 0
33 34 -142 0
-33 -34 -142 0
33 -34 142 0
-35 37 143 0
35 37 -143 0
-35 -37 -143 0
35 -37 143 0
38 -40 144 0
-38 -40 -144 0
38 40 -144 0
-38 40 144 0
-41 42 145 0
41 42 -145 0
-41 -42 -145 0
41 -42 145 0
46 -50 146 0
-46 -50 -146 0
46 50 -146 0
-46 50 146 0
136 -137 147 0
-136 -137 -147 0
136 137 -147 0
-136 137 147 0
138 -139 148 0
-138 -139 -148 0
138 139 -148 0
-138 139 148 0
140 -141 149 0
-140 -141 -149 0
140 141 -149 0
-140 141 149 0
142 -143 150 0
-142 -143 -150 0
142 143 -150 0
-142 143 150 0
144 -145 151 0
-144 -145 -151 0
144 145 -151 0
-144 145 151 0
146 -147 152 0
-146 -147 -152 0
146 147 -152 0
-146 147 152 0
148 -149 153 0
-148 -149 -153 0
148 149 -153 0
-148 149 153 0
150 -151 154 0
-150 -151 -154 0
150 151 -154 0
-150 151 154 0
-152 -153 154 0
152 -153 -154 0
-152 153 -154 0
152 153 154 0
1 3 155 0
-1 3 -155 0
1 -3 -155 0
-1 -3 155 0
-5 6 156 0
5 6 -156 0
-5 -6 -156 0
5 -6 156 0
10 11 157 0
-10 11 -157 0
10 -11 -157 0
-10 -11 157 0
-12 -13 158 0
12 -13 -158 0
-12 13 -158 0
12 13 158 0
14 15 159 0
-14 15 -159 0
14 -15 -159 0
-14 -15 159 0
-17 -21 160 0
17 -21 -160 0
-17 21 -160 0
17 21 160 0
22 24 161 0
-22 24 -161 0
22 -24 -161 0
-22 -24 161 0
25 -26 162 0
-25 -26 -162 0
25 26 -162 0
-25 26 162 0
28 33 163 0
-28 33 -163 0
28 -33 -163 0
-28 -33 163 0
-35 36 164 0
35 36 -164 0
-35 -36 -164 0
35 -36 164 0
-37 -40 165 0
37 -40 -165 0
-37 40 -165 0
37 40 165 0
-41 42 166 0
41 42 -166 0
-41 -42 -166 0
41 -42 166 0
-43 -47 167 0
43 -47 -167 0
-43 47 -167 0
43 47 167 0
-48 49 168 0
48 49 -168 0
-48 -49 -168 0
48 -49 168 0
154 -155 169 0
-154 -155 -169 0
154 155 -169 0
-154 155 169 0
156 -157 170 0
-156 -157 -170 0
156 157 -170 0
-156 157 170 0
158 -159 171 0
-158 -159 -171 0
158 159 -171 0
-158 159 171 0
160 -161 172 0
-160 -161 -172 0
160 161 -172 0
-160 161 172 0
162 -163 173 0
-162 -163 -173 0
162 163 -173 0
-162 163 173 0
164 -165 174 0
-164 -165 -174 0
164 165 -174 0
-164 165 174 0
166 -167 175 0
-166 -167 -175 0
166 167 -175 0
-166 167 175 0
168 -169 176 0
-168 -169 -176 0
168 169 -176 0
-168 169 176 0
170 -171 177 0
-170 -171 -177 0
170 171 -177 0
-170 171 177 0
172 -173 178 0
-172 -173 -178 0
172 173 -178 0
-172 173 178 0
174 -175 179 0
-174 -175 -179 0
174 175 -179 0
-174 175 179 0
176 -177 180 0
-176 -177 -180 0
176 177 -180 0
-176 177 180 0
178 -179 181 0
-178 -179 -181 0
178 179 -181 0
-178 179 181 0
180 181 0
-180 -181 0
-1 5 182 0
1 5 -182 0
-1 -5 -182 0
1 -5 182 0
8 -9 183 0
-8 -9 -183 0
8 9 -183 0
-8 9 183 0
-14 -15 184 0
14 -15 -184 0
-14 15 -184 0
14 15 184 0
16 -17 185 0
-16 -17 -185 0
16 17 -185 0
-16 17 185 0
19 -22 186 0
-19 -22 -186 0
19 22 -186 0
-19 22 186 0
-23 -25 187 0
23 -25 -187 0
-23 25 -187 0
23 25 187 0
-26 -32 188 0
26 -32 -188 0
-26 32 -188 0
26 32 188 0
-39 43 189 0
39 43 -189 0
-39 -43 -189 0
39 -43 189 0
44 -45 190 0
-44 -45 -190 0
44 45 -190 0
-44 45 190 0
-48 -49 191 0
48 -49 -191 0
-48 49 -191 0
48 49 191 0
181 -182 192 0
-181 -182 -192 0
181 182 -192 0
-181 182 192 0
183 -184 193 0
-183 -184 -193 0
183 184 -193 0
-183 184 193 0
185 -186 194 0
-185 -186 -194 0
185 186 -194 0
-185 186 194 0
187 -188 195 0
-187 -188 -195 0
187 188 -195 0
-187 188 195 0
189 -190 196 0
-189 -190 -196 0
189 190 -196 0
-189 190 196 0
191 -192 197 0
-191 -192 -197 0
191 192 -197 0
-191 192 197 0
193 -194 198 0
-193 -194 -198 0
193 194 -198 0
-193 194 198 0
195 -196 199 0
-195 -196 -199 0
195 196 -199 0
-195 196 199 0
-197 -198 199 0
197 -198 -199 0
-197 198 -199 0
197 198 199 0
7 -8 200 0
-7 -8 -200 0
7 8 -200 0
-7 8 200 0
-9 -10 201 0
9 -10 -201 0
-9 10 -201 0
9 10 201 0
-12 -16 202 0
12 -16 -202 0
-12 16 -202 0
12 16 202 0
-17 -19 203 0
17 -19 -203 0
-17 19 -203 0
17 19 203 0
-20 21 204 0
20 21 -204 0
-20 -21 -204 0
20 -21 204 0
22 -24 205 0
-22 -24 -205 0
22 24 -205 0
-22 24 205 0
27 -28 206 0
-27 -28 -206 0
27 28 -206 0
-27 28 206 0
30 33 207 0
-30 33 -207 0
30 -33 -207 0
-30 -33 207 0
-36 -37 208 0
36 -37 -208 0
-36 37 -208 0
36 37 208 0
38 -39 209 0
-38 -39 -209 0
38 39 -209 0
-38 39 209 0
40 -43 210 0
-40 -43 -210 0
40 43 -210 0
-40 43 210 0
44 -45 211 0
-44 -45 -211 0
44 45 -211 0
-44 45 211 0
-48 50 212 0
48 50 -212 0
-48 -50 -212 0
48 -50 212 0
200 -201 213 0
-200 -201 -213 0
200 201 -213 0
-200 201 213 0
202 -203 214 0
-202 -203 -214 0
202 203 -214 0
-202 203 214 0
204 -205 215 0
-204 -205 -215 0
204 205 -215 0
-204 205 215 0
206 -207 216 0
-206 -207 -216 0
206 207 -216 0
-206 207 216 0
208 -209 217 0
-208 -209 -217 0
208 209 -217 0
-208 209 217 0
210 -211 218 0
-210 -211 -218 0
210 211 -218 0
-210 211 218 0
212 -213 219 0
-212 -213 -219 0
212 213 -219 0
-212 213 219 0
214 -215 220 0
-214 -215 -220 0
214 215 -220 0
-214 215 220 0
216 -217 221 0
-216 -217 -221 0
216 217 -221 0
-216 217 221 0
218 -219 222 0
-218 -219 -222 0
218 219 -222 0
-218 219 222 0
220 -221 223 0
-220 -221 -223 0
220 221 -223 0
-220 221 223 0
222 223 0
-222 -223 0
1 2 224 0
-1 2 -224 0
1 -2 -224 0
-1 -2 224 0
3 4 225 0
-3 4 -225 0
3 -4 -225 0
-3 -4 225 0
5 8 226 0
-5 8 -226 0
5 -8 -226 0
-5 -8 226 0
11 12 227 0
-11 12 -227 0
11 -12 -227 0
-11 -12 227 0
-14 15 228 0
14 15 -228 0
-14 -15 -228 0
14 -15 228 0
-17 -18 229 0
17 -18 -229 0
-17 18 -229 0
17 18 229 0
19 -26 230 0
-19 -26 -230 0
19 26 -230 0
-19 26 230 0
-28 -29 231 0
28 -29 -231 0
-28 29 -231 0
28 29 231 0
30 31 232 0
-30 31 -232 0
30 -31 -232 0
-30 -31 232 0
-32 -34 233 0
32 -34 -233 0
-32 34 -233 0
32 34 233 0
-35 -36 234 0
35 -36 -234 0
-35 36 -234 0
35 36 234 0
37 39 235 0
-37 39 -235 0
37 -39 -235 0
-37 -39 235 0
40 43 236 0
-40 43 -236 0
40 -43 -236 0
-40 -43 236 0
-44 -45 237 0
44 -45 -237 0
-44 45 -237 0
44 45 237 0
46 -48 238 0
-46 -48 -238 0
46 48 -238 0
-46 48 238 0
223 -224 239 0
-223 -224 -239 0
223 224 -239 0
-223 224 239 0
225 -226 240 0
-225 -226 -240 0
225 226 -240 0
-225 226 240 0
227 -228 241 0
-227 -228 -241 0
227 228 -241 0
-227 228 241 0
229 -230 242 0
-229 -230 -242 0
229 230 -242 0
-229 230 242 0
231 -232 243 0
-231 -232 -243 0
231 232 -243 0
-231 232 243 0
233 -234 244 0
-233 -234 -244 0
233 234 -244 0
-233 234 244 0
235 -236 245 0
-235 -236 -245 0
235 236 -245 0
-235 236 245 0
237 -238 246 0
-237 -238 -246 0
237 238 -246 0
-237 238 246 0
239 -240 247 0
-239 -240 -247 0
239 240 -247 0
-239 240 247 0
241 -242 248 0
-241 -242 -248 0
241 242 -248 0
-241 242 248 0
243 -244 249 0
-243 -244 -249 0
243 244 -249 0
-243 244 249 0
245 -246 250 0
-245 -246 -250 0
245 246 -250 0
-245 246 250 0
247 -248 251 0
-247 -248 -251 0
247 248 -251 0
-247 248 251 0
249 -250 252 0
-249 -250 -252 0
249 250 -252 0
-249 250 252 0
251 252 0
-251 -252 0
-1 2 253 0
1 2 -253 0
-1 -2 -253 0
1 -2 253 0
-3 -4 254 0
3 -4 -254 0
-3 4 -254 0
3 4 254 0
6 7 255 0
-6 7 -255 0
6 -7 -255 0
-6 -7 255 0
9 11 256 0
-9 11 -256 0
9 -11 -256 0
-9 -11 256 0
14 15 257 0
-14 15 -257 0
14 -15 -257 0
-14 -15 257 0
18 19 258 0
-18 19 -258 0
18 -19 -258 0
-18 -19 258 0
-20 21 259 0
20 21 -259 0
-20 -21 -259 0
20 -21 259 0
-27 -28 260 0
27 -28 -260 0
-27 28 -260 0
27 28 260 0
-29 -30 261 0
29 -30 -261 0
-29 30 -261 0
29 30 261 0
-31 -34 262 0
31 -34 -262 0
-31 34 -262 0
31 34 262 0
-37 -39 263 0
37 -39 -263 0
-37 39 -263 0
37 39 263 0
43 45 264 0
-43 45 -264 0
43 -45 -264 0
-43 -45 264 0
252 -253 265 0
-252 -253 -265 0
252 253 -265 0
-252 253 265 0
254 -255 266 0
-254 -255 -266 0
254 255 -266 0
-254 255 266 0
256 -257 267 0
-256 -257 -267 0
256 257 -267 0
-256 257 267 0
258 -259 268 0
-258 -259 -268 0
258 259 -268 0
-258 259 268 0
260 -261 269 0
-260 -261 -269 0
260 261 -269 0
-260 261 269 0
262 -263 270 0
-262 -263 -270 0
262 263 -270 0
-262 263 270 0
264 -265 271 0
-264 -265 -271 0
264 265 -271 0
-264 265 271 0
266 -267 272 0
-266 -267 -272 0
266 267 -272 0
-266 267 272 0
268 -269 273 0
-268 -269 -273 0
268 269 -273 0
-268 269 273 0
270 -271 274 0
-270 -271 -274 0
270 271 -274 0
-270 271 274 0
272 -273 275 0
-272 -273 -275 0
272 273 -275 0
-272 273 275 0
274 275 0
-274 -275 0
-1 6 276 0
1 6 -276 0
-1 -6 -276 0
1 -6 276 0
8 9 277 0
-8 9 -277 0
8 -9 -277 0
-8 -9 277 0
12 -15 278 0
-12 -15 -278 0
12 15 -278 0
-12 15 278 0
17 -18 279 0
-17 -18 -279 0
17 18 -279 0
-17 18 279 0
-20 28 280 0
20 28 -280 0
-20 -28 -280 0
20 -28 280 0
-29 30 281 0
29 30 -281 0
-29 -30 -281 0
29 -30 281 0
31 32 282 0
-31 32 -282 0
31 -32 -282 0
-31 -32 282 0
33 -34 283 0
-33 -34 -283 0
33 34 -283 0
-33 34 283 0
-35 36 284 0
35 36 -284 0
-35 -36 -284 0
35 -36 284 0
-38 39 285 0
38 39 -285 0
-38 -39 -285 0
38 -39 285 0
41 42 286 0
-41 42 -286 0
41 -42 -286 0
-41 -42 286 0
-43 -44 287 0
43 -44 -287 0
-43 44 -287 0
43 44 287 0
45 49 288 0
-45 49 -288 0
45 -49 -288 0
-45 -49 288 0
275 -276 289 0
-275 -276 -289 0
275 276 -289 0
-275 276 289 0
277 -278 290 0
-277 -278 -290 0
277 278 -290 0
-277 278 290 0
279 -280 291 0
-279 -280 -291 0
279 280 -291 0
-279 280 291 0
281 -282 292 0
-281 -282 -292 0
281 282 -292 0
-281 282 292 0
283 -284 293 0
-283 -284 -293 0
283 284 -293 0
-283 284 293 0
285 -286 294 0
-285 -286 -294 0
285 286 -294 0
-285 286 294 0
287 -288 295 0
-287 -288 -295 0
287 288 -295 0
-287 288 295 0
289 -290 296 0
-289 -290 -296 0
289 290 -296 0
-289 290 296 0
291 -292 297 0
-291 -292 -297 0
291 292 -297 0
-291 292 297 0
293 -294 298 0
-293 -294 -298 0
293 294 -298 0
-293 294 298 0
295 -296 299 0
-295 -296 -299 0
295 296 -299 0
-295 296 299 0
297 -298 300 0
-297 -298 -300 0
297 298 -300 0
-297 298 300 0
299 300 0
-299 -300 0
-1 2 301 0
1 2 -301 0
-1 -2 -301 0
1 -2 301 0
6 -7 302 0
-6 -7 -302 0
6 7 -302 0
-6 7 302 0
-10 -11 303 0
10 -11 -303 0
-10 11 -303 0
10 11 303 0
-15 16 304 0
15 16 -304 0
-15 -16 -304 0
15 -16 304 0
19 -20 305 0
-19 -20 -305 0
19 20 -305 0
-19 20 305 0
-21 25 306 0
21 25 -306 0
-21 -25 -306 0
21 -25 306 0
28 29 307 0
-28 29 -307 0
28 -29 -307 0
-28 -29 307 0
-31 33 308 0
31 33 -308 0
-31 -33 -308 0
31 -33 308 0
-34 -35 309 0
34 -35 -309 0
-34 35 -309 0
34 35 309 0
-36 37 310 0
36 37 -310 0
-36 -37 -310 0
36 -37 310 0
40 -41 311 0
-40 -41 -311 0
40 41 -311 0
-40 41 311 0
43 44 312 0
-43 44 -312 0
43 -44 -312 0
-43 -44 312 0
46 47 313 0
-46 47 -313 0
46 -47 -313 0
-46 -47 313 0
300 -301 314 0
-300 -301 -314 0
300 301 -314 0
-300 301 314 0
302 -303 315 0
-302 -303 -315 0
302 303 -315 0
-302 303 315 0
304 -305 316 0
-304 -305 -316 0
304 305 -316 0
-304 305 316 0
306 -307 317 0
-306 -307 -317 0
306 307 -317 0
-306 307 317 0
308 -309 318 0
-308 -309 -318 0
308 309 -318 0
-308 309 318 0
310 -311 319 0
-310 -311 -319 0
310 311 -319 0
-310 311 319 0
312 -313 320 0
-312 -313 -320 0
312 313 -320 0
-312 313 320 0
314 -315 321 0
-314 -315 -321 0
314 315 -321 0
-314 315 321 0
316 -317 322 0
-316 -317 -322 0
316 317 -322 0
-316 317 322 0
318 -319 323 0
-318 -319 -323 0
318 319 -323 0
-318 319 323 0
320 -321 324 0
-320 -321 -324 0
320 321 -324 0
-320 321 324 0
322 -323 325 0
-322 -323 -325 0
322 323 -325 0
-322 323 325 0
324 325 0
-324 -325 0
3 -5 326 0
-3 -5 -326 0
3 5 -326 0
-3 5 326 0
-7 8 327 0
7 8 -327 0
-7 -8 -327 0
7 -8 327 0
10 12 328 0
-10 12 -328 0
10 -12 -328 0
-10 -12 328 0
15 21 329 0
-15 21 -329 0
15 -21 -329 0
-15 -21 329 0
-22 23 330 0
22 23 -330 0
-22 -23 -330 0
22 -23 330 0
-25 26 331 0
25 26 -331 0
-25 -26 -331 0
25 -26 331 0
28 30 332 0
-28 30 -332 0
28 -30 -332 0
-28 -30 332 0
-32 36 333 0
32 36 -333 0
-32 -36 -333 0
32 -36 333 0
37 -38 334 0
-37 -38 -334 0
37 38 -334 0
-37 38 334 0
-41 42 335 0
41 42 -335 0
-41 -42 -335 0
41 -42 335 0
45 49 336 0
-45 49 -336 0
45 -49 -336 0
-45 -49 336 0
326 -327 337 0
-326 -327 -337 0
326 327 -337 0
-326 327 337 0
328 -329 338 0
-328 -329 -338 0
328 329 -338 0
-328 329 338 0
330 -331 339 0
-330 -331 -339 0
330 331 -339 0
-330 331 339 0
332 -333 340 0
-332 -333 -340 0
332 333 -340 0
-332 333 340 0
334 -335 341 0
-334 -335 -341 0
334 335 -341 0
-334 335 341 0
336 -337 342 0
-336 -337 -342 0
336 337 -342 0
-336 337 342 0
338 -339 343 0
-338 -339 -343 0
338 339 -343 0
-338 339 343 0
340 -341 344 0
-340 -341 -344 0
340 341 -344 0
-340 341 344 0
-342 -343 344 0
342 -343 -344 0
-342 343 -344 0
342 343 344 0
-1 -3 345 0
1 -3 -345 0
-1 3 -345 0
1 3 345 0
-14 16 346 0
14 16 -346 0
-14 -16 -346 0
14 -16 346 0
-17 -18 347 0
17 -18 -347 0
-17 18 -347 0
17 18 347 0
21 -22 348 0
-21 -22 -348 0
21 22 -348 0
-21 22 348 0
-23 24 349 0
23 24 -349 0
-23 -24 -349 0
23 -24 349 0
-26 -30 350 0
26 -30 -350 0
-26 30 -350 0
26 30 350 0
-32 -33 351 0
32 -33 -351 0
-32 33 -351 0
32 33 351 0
37 42 352 0
-37 42 -352 0
37 -42 -352 0
-37 -42 352 0
48 49 353 0
-48 49 -353 0
48 -49 -353 0
-48 -49 353 0
344 -345 354 0
-344 -345 -354 0
344 345 -354 0
-344 345 354 0
346 -347 355 0
-346 -347 -355 0
346 347 -355 0
-346 347 355 0
348 -349 356 0
-348 -349 -356 0
348 349 -356 0
-348 349 356 0
350 -351 357 0
-350 -351 -357 0
350 351 -357 0
-350 351 357 0
352 -353 358 0
-352 -353 -358 0
352 353 -358 0
-352 353 358 0
354 -355 359 0
-354 -355 -359 0
354 355 -359 0
-354 355 359 0
356 -357 360 0
-356 -357 -360 0
356 357 -360 0
-356 357 360 0
-358 -359 360 0
358 -359 -360 0
-358 359 -360 0
358 359 360 0
1 -3 361 0
-1 -3 -361 0
1 3 -361 0
-1 3 361 0
-9 -12 362 0
9 -12 -362 0
-9 12 -362 0
9 12 362 0
16 -18 363 0
-16 -18 -363 0
16 18 -363 0
-16 18 363 0
19 23 364 0
-19 23 -364 0
19 -23 -364 0
-19 -23 364 0
25 28 365 0
-25 28 -365 0
25 -28 -365 0
-25 -28 365 0
-29 -30 366 0
29 -30 -366 0
-29 30 -366 0
29 30 366 0
-34 -38 367 0
34 -38 -367 0
-34 38 -367 0
34 38 367 0
39 40 368 0
-39 40 -368 0
39 -40 -368 0
-39 -40 368 0
-41 42 369 0
41 42 -369 0
-41 -42 -369 0
41 -42 369 0
43 -47 370 0
-43 -47 -370 0
43 47 -370 0
-43 47 370 0
361 -362 371 0
-361 -362 -371 0
361 362 -371 0
-361 362 371 0
363 -364 372 0
-363 -364 -372 0
363 364 -372 0
-363 364 372 0
365 -366 373 0
-365 -366 -373 0
365 366 -373 0
-365 366 373 0
367 -368 374 0
-367 -368 -374 0
367 368 -374 0
-367 368 374 0
369 -370 375 0
-369 -370 -375 0
369 370 -375 0
-369 370 375 0
371 -372 376 0
-371 -372 -376 0
371 372 -376 0
-371 372 376 0
373 -374 377 0
-373 -374 -377 0
373 374 -377 0
-373 374 377 0
-375 -376 377 0
375 -376 -377 0
-375 376 -377 0
375 376 377 0
1 2 378 0
-1 2 -378 0
1 -2 -378 0
-1 -2 378 0
4 6 379 0
-4 6 -379 0
4 -6 -379 0
-4 -6 379 0
-7 -9 380 0
7 -9 -380 0
-7 9 -380 0
7 9 380 0
-15 16 381 0
15 16 -381 0
-15 -16 -381 0
15 -16 381 0
17 -19 382 0
-17 -19 -382 0
17 19 -382 0
-17 19 382 0
20 -22 383 0
-20 -22 -383 0
20 22 -383 0
-20 22 383 0
27 28 384 0
-27 28 -384 0
27 -28 -384 0
-27 -28 384 0
31 33 385 0
-31 33 -385 0
31 -33 -385 0
-31 -33 385 0
34 35 386 0
-34 35 -386 0
34 -35 -386 0
-34 -35 386 0
38 -39 387 0
-38 -39 -387 0
38 39 -387 0
-38 39 387 0
40 -43 388 0
-40 -43 -388 0
40 43 -388 0
-40 43 388 0
-46 -47 389 0
46 -47 -389 0
-46 47 -389 0
46 47 389 0
377 -378 390 0
-377 -378 -390 0
377 378 -390 0
-377 378 390 0
379 -380 391 0
-379 -380 -391 0
379 380 -391 0
-379 380 391 0
381 -382 392 0
-381 -382 -392 0
381 382 -392 0
-381 382 392 0
383 -384 393 0
-383 -384 -393 0
383 384 -393 0
-383 384 393 0
385 -386 394 0
-385 -386 -394 0
385 386 -394 0
-385 386 394 0
387 -388 395 0
-387 -388 -395 0
387 388 -395 0
-387 388 395 0
389 -390 396 0
-389 -390 -396 0
389 390 -396 0
-389 390 396 0
391 -392 397 0
-391 -392 -397 0
391 392 -397 0
-391 392 397 0
393 -394 398 0
-393 -394 -398 0
393 394 -398 0
-393 394 398 0
395 -396 399 0
-395 -396 -399 0
395 396 -399 0
-395 396 399 0
397 -398 400 0
-397 -398 -400 0
397 398 -400 0
-397 398 400 0
399 400 0
-399 -400 0
2 4 401 0
-2 4 -401 0
2 -4 -401 0
-2 -4 401 0
-5 7 402 0
5 7 -402 0
-5 -7 -402 0
5 -7 402 0
9 10 403 0
-9 10 -403 0
9 -10 -403 0
-9 -10 403 0
-12 -16 404 0
12 -16 -404 0
-12 16 -404 0
12 16 404 0
-18 -19 405 0
18 -19 -405 0
-18 19 -405 0
18 19 405 0
20 21 406 0
-20 21 -406 0
20 -21 -406 0
-20 -21 406 0
27 -28 407 0
-27 -28 -407 0
27 28 -407 0
-27 28 407 0
-29 -30 408 0
29 -30 -408 0
-29 30 -408 0
29 30 408 0
-34 35 409 0
34 35 -409 0
-34 -35 -409 0
34 -35 409 0
-36 39 410 0
36 39 -410 0
-36 -39 -410 0
36 -39 410 0
-40 43 411 0
40 43 -411 0
-40 -43 -411 0
40 -43 411 0
45 46 412 0
-45 46 -412 0
45 -46 -412 0
-45 -46 412 0
-47 49 413 0
47 49 -413 0
-47 -49 -413 0
47 -49 413 0
401 -402 414 0
-401 -402 -414 0
401 402 -414 0
-401 402 414 0
403 -404 415 0
-403 -404 -415 0
403 404 -415 0
-403 404 415 0
405 -406 416 0
-405 -406 -416 0
405 406 -416 0
-405 406 416 0
407 -408 417 0
-407 -408 -417 0
407 408 -417 0
-407 408 417 0
409 -410 418 0
-409 -410 -418 0
409 410 -418 0
-409 410 418 0
411 -412 419 0
-411 -412 -419 0
411 412 -419 0
-411 412 419 0
413 -414 420 0
-413 -414 -420 0
413 414 -420 0
-413 414 420 0
415 -416 421 0
-415 -416 -421 0
415 416 -421 0
-415 416 421 0
417 -418 422 0
-417 -418 -422 0
417 418 -422 0
-417 418 422 0
419 -420 423 0
-419 -420 -423 0
419 420 -423 0
-419 420 423 0
421 -422 424 0
-421 -422 -424 0
421 422 -424 0
-421 422 424 0
423 424 0
-423 -424 0
1 2 425 0
-1 2 -425 0
1 -2 -425 0
-1 -2 425 0
8 -19 426 0
-8 -19 -426 0
8 19 -426 0
-8 19 426 0
-21 22 427 0
21 22 -427 0
-21 -22 -427 0
21 -22 427 0
23 -24 428 0
-23 -24 -428 0
23 24 -428 0
-23 24 428 0
-26 27 429 0
26 27 -429 0
-26 -27 -429 0
26 -27 429 0
29 30 430 0
-29 30 -430 0
29 -30 -430 0
-29 -30 430 0
-31 33 431 0
31 33 -431 0
-31 -33 -431 0
31 -33 431 0
35 36 432 0
-35 36 -432 0
35 -36 -432 0
-35 -36 432 0
-38 39 433 0
38 39 -433 0
-38 -39 -433 0
38 -39 433 0
-40 42 434 0
40 42 -434 0
-40 -42 -434 0
40 -42 434 0
43 44 435 0
-43 44 -435 0
43 -44 -435 0
-43 -44 435 0
-45 -46 436 0
45 -46 -436 0
-45 46 -436 0
45 46 436 0
-47 -50 437 0
47 -50 -437 0
-47 50 -437 0
47 50 437 0
425 -426 438 0
-425 -426 -438 0
425 426 -438 0
-425 426 438 0
427 -428 439 0
-427 -428 -439 0
427 428 -439 0
-427 428 439 0
429 -430 440 0
-429 -430 -440 0
429 430 -440 0
-429 430 440 0
431 -432 441 0
-431 -432 -441 0
431 432 -441 0
-431 432 441 0
433 -434 442 0
-433 -434 -442 0
433 434 -442 0
-433 434 442 0
435 -436 443 0
-435 -436 -443 0
435 436 -443 0
-435 436 443 0
437 -438 444 0
-437 -438 -444 0
437 438 -444 0
-437 438 444 0
439 -440 445 0
-439 -440 -445 0
439 440 -445 0
-439 440 445 0
441 -442 446 0
-441 -442 -446 0
441 442 -446 0
-441 442 446 0
443 -444 447 0
-443 -444 -447 0
443 444 -447 0
-443 444 447 0
445 -446 448 0
-445 -446 -448 0
445 446 -448 0
-445 446 448 0
447 448 0
-447 -448 0
1 -3 449 0
-1 -3 -449 0
1 3 -449 0
-1 3 449 0
-6 -7 450 0
6 -7 -450 0
-6 7 -450 0
6 7 450 0
-8 -11 451 0
8 -11 -451 0
-8 11 -451 0
8 11 451 0
12 14 452 0
-12 14 -452 0
12 -14 -452 0
-12 -14 452 0
-15 17 453 0
15 17 -453 0
-15 -17 -453 0
15 -17 453 0
18 -19 454 0
-18 -19 -454 0
18 19 -454 0
-18 19 454 0
23 24 455 0
-23 24 -455 0
23 -24 -455 0
-23 -24 455 0
-26 -27 456 0
26 -27 -456 0
-26 27 -456 0
26 27 456 0
-28 -29 457 0
28 -29 -457 0
-28 29 -457 0
28 29 457 0
-34 -35 458 0
34 -35 -458 0
-34 35 -458 0
34 35 458 0
-36 37 459 0
36 37 -459 0
-36 -37 -459 0
36 -37 459 0
-38 41 460 0
38 41 -460 0
-38 -41 -460 0
38 -41 460 0
46 -48 461 0
-46 -48 -461 0
46 48 -461 0
-46 48 461 0
449 -450 462 0
-449 -450 -462 0
449 450 -462 0
-449 450 462 0
451 -452 463 0
-451 -452 -463 0
451 452 -463 0
-451 452 463 0
453 -454 464 0
-453 -454 -464 0
453 454 -464 0
-453 454 464 0
455 -456 465 0
-455 -456 -465 0
455 456 -465 0
-455 456 465 0
457 -458 466 0
-457 -458 -466 0
457 458 -466 0
-457 458 466 0
459 -460 467 0
-459 -460 -467 0
459 460 -467 0
-459 460 467 0
461 -462 468 0
-461 -462 -468 0
461 462 -468 0
-461 462 468 0
463 -464 469 0
-463 -464 -469 0
463 464 -469 0
-463 464 469 0
465 -466 470 0
-465 -466 -470 0
465 466 -470 0
-465 466 470 0
467 -468 471 0
-467 -468 -471 0
467 468 -471 0
-467 468 471 0
469 -470 472 0
-469 -470 -472 0
469 470 -472 0
-469 470 472 0
471 472 0
-471 -472 0
-1 5 473 0
1 5 -473 0
-1 -5 -473 0
1 -5 473 0
-9 12 474 0
9 12 -474 0
-9 -12 -474 0
9 -12 474 0
-14 16 475 0
14 16 -475 0
-14 -16 -475 0
14 -16 475 0
-18 -19 476 0
18 -19 -476 0
-18 19 -476 0
18 19 476 0
20 -21 477 0
-20 -21 -477 0
20 21 -477 0
-20 21 477 0
-24 -25 478 0
24 -25 -478 0
-24 25 -478 0
24 25 478 0
-28 29 479 0
28 29 -479 0
-28 -29 -479 0
28 -29 479 0
-31 32 480 0
31 32 -480 0
-31 -32 -480 0
31 -32 480 0
39 -40 481 0
-39 -40 -481 0
39 40 -481 0
-39 40 481 0
-42 43 482 0
42 43 -482 0
-42 -43 -482 0
42 -43 482 0
44 45 483 0
-44 45 -483 0
44 -45 -483 0
-44 -45 483 0
472 -473 484 0
-472 -473 -484 0
472 473 -484 0
-472 473 484 0
474 -475 485 0
-474 -475 -485 0
474 475 -485 0
-474 475 485 0
476 -477 486 0
-476 -477 -486 0
476 477 -486 0
-476 477 486 0
478 -479 487 0
-478 -479 -487 0
478 479 -487 0
-478 479 487 0
480 -481 488 0
-480 -481 -488 0
480 481 -488 0
-480 481 488 0
482 -483 489 0
-482 -483 -489 0
482 483 -489 0
-482 483 489 0
484 -485 490 0
-484 -485 -490 0
484 485 -490 0
-484 485 490 0
486 -487 491 0
-486 -487 -491 0
486 487 -491 0
-486 487 491 0
488 -489 492 0
-488 -489 -492 0
488 489 -492 0
-488 489 492 0
-490 -491 492 0
490 -491 -492 0
-490 491 -492 0
490 491 492 0
